$
$ Database for Cr-Ni from F. Tang and B. Hallstedt, 2016
$
$ F. Tang, B. Hallstedt, Calphad, submitted, 2016.
$
$ ------------------------------------------------------------------------------
 TEMP-LIM 298.15 6000.00 !
$
$ELEMENT NAME  REF. STATE               ATOMIC MASS H298-H0    S298    !
$
 ELEMENT VA   VACUUM                      0.0          0.0      0.0    ! 
 ELEMENT CR   BCC_A2                     51.996     4050.0     23.5429 ! 
 ELEMENT NI   FCC_A1                     58.69      4787.0     29.7955 ! 
$ ------------------------------------------------------------------------------
$ Phase definitions
$
 PHASE LIQUID:L % 1 1 !
 CONST LIQUID:L : CR NI : !
$
$ Fcc (cF4, Fm-3m) and MeX (cF8, Fm-3m)
$
 PHASE FCC_A1 %A 2 1 1 !
 CONST FCC_A1 : CR NI% : VA : !
$
$ Bcc (cI2, Im-3m)
$
 PHASE BCC_A2 %B 2 1 3 !
 CONST BCC_A2 : CR% NI : VA : !
$
$ Prototype MoPt2 (oP6, Immm)
$
 PHASE CRNI2 % 2 1 2 !
 CONST CRNI2 : CR : NI : !
$ ------------------------------------------------------------------------------
$ Defaults
$
 DEFAULT-COM DEFINE_SYSTEM_ELEMENT VA !
 TYPE-DEF % SEQ * !
 TYPE-DEF A GES AMEND_PHASE_DESCRIPTION @ MAGNETIC -3 0.28 !
 TYPE-DEF B GES AMEND_PHASE_DESCRIPTION @ MAGNETIC -1 0.4 !
 FUNCTION ZERO      298.15  0;                                         6000 N !
 FUNCTION UN_ASS    298.15  0;                                         6000 N !
 FUNCTION R         298.15  +8.31451;                                  6000 N !
$ ------------------------------------------------------------------------------
$ Element data
$ ------------------------------------------------------------------------------
$ Cr
$
 PAR  G(BCC_A2,CR:VA),,                 +GHSERCR;,,                   N 91Din !
 PAR  TC(BCC_A2,CR:VA),,                 -311.50;,,                   N 91Din !
 PAR  BM(BCC_A2,CR:VA),,                   -0.008;,,                  N 91Din !
 PAR  G(FCC_A1,CR:VA),,                 +GHSERCR+7284+0.163*T;,,      N 91Din !
 PAR  TC(FCC_A1,CR:VA),,                -1109.00;,,                   N 91Din !
 PAR  BM(FCC_A1,CR:VA),,                   -2.46;,,                   N 91Din !
 PAR  G(LIQUID,CR),,                    +GLIQCR;,,                    N 91Din !
$
 FUNCTION GHSERCR   298.15  -8856.94+157.48*T-26.908*T*LN(T)
       +0.00189435*T**2-1.47721E-06*T**3+139250*T**(-1);
      2180.00  Y  -34869.344+344.18*T-50*T*LN(T)-2.88526E+32*T**(-9);
      6000.00  N !
 FUNCTION GLIQCR    298.15  +24339.955-11.420225*T+GHSERCR+2.37615E-21*T**7;
      2180.00  Y  -16459.984+335.616316*T-50*T*LN(T);
      6000.00  N !
 FUNCTION GFCCCR    298.15  +GHSERCR+7284+0.163*T;                     6000 N !
$ ------------------------------------------------------------------------------
$ Ni
$
 PAR  G(FCC_A1,NI:VA),,                 +GHSERNI;                3000 N 91Din !
 PAR  TC(FCC_A1,NI:VA),,                  633.00;                3000 N 91Din !
 PAR  BM(FCC_A1,NI:VA),,                    0.52;                3000 N 91Din !
 PAR  G(BCC_A2,NI:VA),,                 +GHSERNI
             +8715.084-3.556*T;                                  3000 N 91Din !
 PAR  TC(BCC_A2,NI:VA),,                  575.00;                3000 N 91Din !
 PAR  BM(BCC_A2,NI:VA),,                    0.85;                3000 N 91Din !
 PAR  G(LIQUID,NI),,                    +GLIQNI;                 3000 N 91Din !
$
 FUNCTION GHSERNI   298.15  -5179.159+117.854*T-22.096*T*LN(T)-0.0048407*T**2;
      1728.00  Y  -27840.62+279.134977*T-43.1*T*LN(T)+1.12754E+31*T**(-9);
      3000.00  N !
 FUNCTION GLIQNI    298.15  +16414.686-9.397*T+GHSERNI-3.82318E-21*T**7;
      1728.00  Y  -9549.817+268.597977*T-43.1*T*LN(T);
      3000.00  N !
 FUNCTION GBCCNI    298.15  +GHSERNI+8715.084-3.556*T;                 6000 N !
$ ------------------------------------------------------------------------------
$ Binary system
$
$ F. Tang, B. Hallstedt, Calphad, submitted, 2016.
$
 PAR  L(LIQUID,CR,NI;0),,               -13300+2.7*T;,,               N 16Tan !
 PAR  L(LIQUID,CR,NI;1),,               +2900+1*T;,,                  N 16Tan !
$
 PAR  L(FCC_A1,CR,NI:VA;0),,            +4300-8.9*T;,,                N 16Tan !
 PAR  L(FCC_A1,CR,NI:VA;1),,            +27000-13.8*T;,,              N 16Tan !
 PAR  TC(FCC_A1,CR,NI:VA;0),,           -3605;,,                      N 86Din !
 PAR  BM(FCC_A1,CR,NI:VA;0),,              -1.91;,,                   N 86Din !
$
 PAR  L(BCC_A2,CR,NI:VA;0),,            +14500-9*T;,,                 N 16Tan !
 PAR  L(BCC_A2,CR,NI:VA;1),,            +27500-7.6*T;,,               N 16Tan !
 PAR  TC(BCC_A2,CR,NI:VA;0),,           +2373;,,                      N 86Din !
 PAR  TC(BCC_A2,CR,NI:VA;1),,            +617;,,                      N 86Din !
 PAR  BM(BCC_A2,CR,NI:VA;0),,              +4;,,                      N 86Din !
$
 PAR  G(CRNI2,CR:NI),,                  +GHSERCR+2*GHSERNI
             -6000-6.8*T;,,                                           N 16Tan !
$ ------------------------------------------------------------------------------
$
 ASSESSED_SYSTEM
  CR-NI(TDB -* +LIQ +BCC_A2 +FCC_A1 +CRNI2 ;P3 TMM:300/2500 *) !
$
$
 LIST-OF-REFERENCE
 NUMBER  SOURCE
  Null   'Unknown source'
  86Din  'A.T. Dinsdale, T.G. Chart, NPL, unpublished, 1986; Cr-Ni'
  91Din  'A.T. Dinsdale, Calphad, 15, 317-425(1991).'
  16Tan  'F. Tang, B. Hallstedt, Calphad, submitted, 2016; Cr-Ni'
!
$ UQ L(BCC_A2,Cr,Ni;0) {"T": [-10.126193051047878, -9.241322144477675, -14.854274375385938, -12.094844238589117, -9.724673052619146, -11.852937980521872, -12.622437279393317, -11.172209528647096, -13.569100691261847, -11.496345073513309, -11.929966035524778, -11.108041913480164, -11.149212690625088, -11.353123157443665, -12.972635922014861, -11.771202444423084, -12.017069356319519, -11.989295771827297, -11.153668668129017, -12.358013441097293, -13.195925901065461, -11.982875854874795, -10.928468403161567, -10.490934478186574, -13.255249084283586, -11.258199917754343, -12.284483532555821, -13.597584594752336, -12.700827841469621, -11.774235994220623, -10.66774259388969, -10.417817795373345, -11.169946389645093, -10.377218743594717, -11.156242877356654, -11.651914126968272, -10.126193051047878, -9.241322144477675, -14.854274375385938, -12.248894121560749, -9.724673052619146, -11.799521448921585, -12.750245386676177, -11.172209528647096, -13.569100691261847, -11.496345073513309, -11.929966035524778, -11.108041913480164, -11.149212690625088, -11.353123157443665, -12.972635922014861, -11.771202444423084, -11.940416168476096, -12.066109565481097, -11.153668668129017, -12.094748931871608, -13.195925901065461, -11.982875854874795, -10.165706420389423, -10.490934478186574, -13.255249084283586, -11.261523392041635, -12.284483532555821, -12.74680341974573, -12.700827841469621, -11.774235994220623, -10.66774259388969, -10.417817795373345, -11.167019901826505, -10.475776868366914, -11.156242877356654, -11.586701499848965, -10.126193051047878, -9.910551795664206, -14.854274375385938, -12.248894121560749, -9.724673052619146, -11.799521448921585, -12.750245386676177, -11.172209528647096, -13.569100691261847, -11.496345073513309, -11.946289507424208, -11.108041913480164, -11.236149796964119, -11.563824632239834, -12.972635922014861, -11.771202444423084, -11.940416168476096, -12.066109565481097, -11.153668668129017, -12.01534480073688, -13.195925901065461, -11.982875854874795, -10.165706420389423, -10.490934478186574, -13.255249084283586, -11.261523392041635, -12.474556666140122, -12.74680341974573, -12.54650265012651, -11.829949920416846, -10.66774259388969, -10.417817795373345, -11.170047130094854, -10.477262162243091, -11.156242877356654, -11.586701499848965, -10.126193051047878, -9.910551795664206, -14.854274375385938, -12.248894121560749, -9.724673052619146, -11.799521448921585, -12.750245386676177, -11.172209528647096, -13.622992893682895, -11.477669228427267, -12.049672876577052, -11.108041913480164, -11.236149796964119, -11.563824632239834, -12.837771227988014, -11.771807780304673, -11.940416168476096, -12.066109565481097, -11.153668668129017, -11.891806260601097, -13.221966940071239, -12.057734309660834, -10.165706420389423, -10.490934478186574, -13.255249084283586, -11.261523392041635, -12.474556666140122, -12.64355553264269, -12.54650265012651, -11.829949920416846, -10.652766567318311, -10.417817795373345, -11.170047130094854, -10.475583083703876, -11.156242877356654, -11.586701499848965, -10.126193051047878, -8.904636921515854, -14.854274375385938, -12.248894121560749, -9.724673052619146, -11.73727311371589, -12.750245386676177, -11.172209528647096, -13.016397036511991, -11.174543263352133, -12.049672876577052, -11.108041913480164, -11.236149796964119, -11.563824632239834, -12.661868611354336, -11.771807780304673, -11.940416168476096, -12.192368434583528, -11.153668668129017, -11.879669056986925, -12.893200855600373, -12.254763944671991, -10.165706420389423, -10.490934478186574, -13.255249084283586, -11.261523392041635, -12.474556666140122, -12.64355553264269, -12.54650265012651, -11.849768941337528, -10.771073854437507, -10.417817795373345, -11.170047130094854, -10.475583083703876, -11.169701918100374, -11.586701499848965, -10.549433392355303, -8.904636921515854, -14.854274375385938, -12.248894121560749, -9.724673052619146, -11.73727311371589, -12.750245386676177, -11.172209528647096, -13.016397036511991, -11.076199072170352, -12.049672876577052, -11.108041913480164, -11.236149796964119, -11.492283851442963, -12.73385619984766, -11.708584914508533, -11.940416168476096, -12.192368434583528, -11.153668668129017, -11.879669056986925, -12.893200855600373, -12.310568512814053, -10.165706420389423, -10.435648944919036, -13.329797848178394, -11.261523392041635, -12.474556666140122, -12.64355553264269, -12.393962398565128, -11.862473145880342, -10.771073854437507, -10.417817795373345, -11.166026715528373, -10.475583083703876, -11.169701918100374, -11.586701499848965, -9.932096371105118, -9.285553339232493, -14.854274375385938, -12.248894121560749, -9.742031058909921, -11.73727311371589, -12.750245386676177, -11.172209528647096, -13.016397036511991, -11.076199072170352, -12.049672876577052, -11.108041913480164, -11.236149796964119, -11.492283851442963, -12.73385619984766, -11.740749938855288, -11.940416168476096, -12.24229799647824, -11.153668668129017, -11.734977379252609, -12.999342560186998, -12.063116462694937, -10.181843160558973, -10.625734649593328, -13.186437003583455, -11.238465247982987, -12.474556666140122, -12.682699341179074, -12.414055461975057, -11.862473145880342, -10.771073854437507, -10.417817795373345, -11.155545166280747, -11.026349828314988, -10.647914662248214, -11.586701499848965, -9.692919086617536, -9.416866990069575, -14.854274375385938, -13.0636497455788, -9.742031058909921, -11.73727311371589, -12.737916912948899, -11.172209528647096, -13.016397036511991, -11.076199072170352, -12.049672876577052, -11.108041913480164, -11.236149796964119, -11.492283851442963, -12.73385619984766, -11.574421808532627, -11.940416168476096, -12.282513238449816, -11.100832794805683, -11.699451062522574, -12.999342560186998, -12.063116462694937, -10.23599944707352, -10.429374747237258, -13.033508505885742, -11.238465247982987, -12.474556666140122, -12.61489352311908, -12.414055461975057, -11.862473145880342, -10.771073854437507, -10.417817795373345, -11.155545166280747, -11.026349828314988, -10.834223609807193, -11.586701499848965, -9.692919086617536, -9.416866990069575, -14.854274375385938, -12.695234881690258, -9.742031058909921, -11.888239198855288, -12.594554790600114, -11.172209528647096, -13.016397036511991, -11.076199072170352, -12.959366912325923, -11.108041913480164, -11.236149796964119, -11.492283851442963, -12.687799512449303, -11.574421808532627, -11.940416168476096, -12.282513238449816, -11.100832794805683, -11.699451062522574, -12.999342560186998, -12.063116462694937, -10.23599944707352, -10.429374747237258, -13.033508505885742, -11.238465247982987, -12.436181642902875, -12.61489352311908, -12.827382607716608, -11.940428150005697, -10.771073854437507, -10.417817795373345, -11.155545166280747, -10.233880374370083, -10.834223609807193, -11.586701499848965, -9.558425789928183, -9.689347238230257, -14.854274375385938, -12.695234881690258, -9.00321115731131, -12.40136947520009, -12.594554790600114, -11.172209528647096, -13.016397036511991, -11.076199072170352, -12.402992424596068, -10.809941064624223, -11.236149796964119, -11.492283851442963, -12.826951671779073, -11.650245615184007, -11.940416168476096, -12.282513238449816, -11.204936831947576, -11.699451062522574, -12.999342560186998, -12.063116462694937, -10.23599944707352, -10.429374747237258, -13.044072984181287, -12.103278808735368, -12.385986075654117, -12.61489352311908, -12.827382607716608, -11.940428150005697, -10.771073854437507, -10.110402128667033, -11.155545166280747, -10.248707415849845, -10.902894719410877, -11.586701499848965, -9.558425789928183, -9.689347238230257, -14.854274375385938, -12.308463832026575, -9.996141338269204, -12.40136947520009, -12.594554790600114, -11.172209528647096, -13.016397036511991, -11.076199072170352, -13.139502694328979, -11.030487422166342, -11.236149796964119, -11.419455282071926, -12.539912859554057, -11.784225363755453, -11.940416168476096, -12.282513238449816, -11.204936831947576, -11.699451062522574, -13.485979719422545, -12.063116462694937, -10.534309455046008, -10.429374747237258, -13.044072984181287, -12.103278808735368, -12.385986075654117, -12.553673565187395, -12.827382607716608, -11.95240695046923, -10.771073854437507, -10.110402128667033, -11.155545166280747, -10.248707415849845, -10.902894719410877, -11.586701499848965, -10.498878617740582, -9.196780808788157, -14.854274375385938, -12.308463832026575, -10.070581661007726, -12.40136947520009, -12.594554790600114, -11.172209528647096, -12.837922245527942, -10.686116805753382, -13.139502694328979, -11.030487422166342, -11.235718607114682, -11.419455282071926, -12.539912859554057, -11.784225363755453, -11.940416168476096, -12.282513238449816, -11.204936831947576, -11.699451062522574, -13.485979719422545, -12.327923047457302, -10.644760540275652, -10.429374747237258, -13.044072984181287, -12.120822515829476, -12.385986075654117, -13.047936235423007, -12.827382607716608, -12.607937488814365, -10.771073854437507, -10.110402128667033, -11.293191447543999, -10.248707415849845, -11.004427535183053, -11.38468103553672, -10.498878617740582, -9.196780808788157, -14.30807807956358, -12.308463832026575, -9.78662047213603, -11.803574824252678, -12.424156044119124, -10.75370394057677, -12.837922245527942, -10.686116805753382, -13.139502694328979, -11.030487422166342, -11.525130029810388, -11.411648000375854, -12.539912859554057, -11.576354366576115, -11.940416168476096, -12.220096827679685, -11.22304125187552, -11.522258261706414, -13.485979719422545, -12.32812867591171, -10.644760540275652, -11.112640947368103, -13.044072984181287, -12.120822515829476, -12.289763218862259, -13.047936235423007, -12.827382607716608, -11.914902071140766, -10.771073854437507, -10.176077039594658, -11.293191447543999, -10.248707415849845, -9.96748378343667, -11.38468103553672, -10.498878617740582, -9.196780808788157, -14.30807807956358, -12.308463832026575, -9.78662047213603, -11.803574824252678, -12.424156044119124, -10.756321150021883, -12.837922245527942, -10.686116805753382, -13.139502694328979, -11.030487422166342, -11.525130029810388, -11.24723464173362, -12.539912859554057, -11.183681579010361, -11.940416168476096, -12.220096827679685, -11.364017287992063, -11.522258261706414, -13.64206832284988, -12.32812867591171, -10.644760540275652, -11.112640947368103, -13.044072984181287, -12.120822515829476, -12.289763218862259, -13.047936235423007, -12.652183802149066, -12.465362688344527, -10.771073854437507, -10.176077039594658, -11.293191447543999, -10.248707415849845, -9.97868894172133, -11.38468103553672, -10.498878617740582, -9.196780808788157, -14.30807807956358, -12.418870213046858, -9.78662047213603, -12.022200588893645, -12.424156044119124, -10.756321150021883, -12.898079060939667, -10.686116805753382, -13.139502694328979, -10.854264141020892, -11.525130029810388, -11.24723464173362, -12.539912859554057, -11.183681579010361, -11.940416168476096, -12.220096827679685, -11.364017287992063, -11.522258261706414, -13.64206832284988, -12.32812867591171, -10.644760540275652, -11.112640947368103, -13.044072984181287, -12.120822515829476, -12.289763218862259, -13.047936235423007, -12.652183802149066, -12.465362688344527, -10.771073854437507, -10.176077039594658, -11.293191447543999, -10.248707415849845, -9.97868894172133, -12.06954629856172, -10.498878617740582, -9.420460013283297, -14.496436260174669, -12.418870213046858, -8.631208834352519, -12.022200588893645, -12.43305233162128, -10.756321150021883, -12.931577294735154, -10.686116805753382, -13.25015642222282, -10.854264141020892, -11.490291612340272, -11.241604238510627, -12.539912859554057, -11.183681579010361, -11.940416168476096, -11.792759803805023, -11.364017287992063, -11.497143514991674, -13.64206832284988, -12.316473552222526, -10.644760540275652, -11.112640947368103, -13.044072984181287, -12.120822515829476, -12.289763218862259, -13.047936235423007, -12.652183802149066, -11.629804766040944, -10.88945631107522, -10.176077039594658, -11.189980115375814, -10.248707415849845, -9.97868894172133, -12.06954629856172, -10.498878617740582, -9.420460013283297, -14.496436260174669, -12.418870213046858, -8.631208834352519, -12.022200588893645, -12.43305233162128, -10.749658016230406, -12.931577294735154, -10.686116805753382, -13.244717658918706, -10.64593041162065, -11.453668130820848, -11.241604238510627, -12.539912859554057, -11.183681579010361, -11.940416168476096, -11.792759803805023, -11.364017287992063, -11.444846012934855, -13.627919521086358, -12.316473552222526, -10.644760540275652, -11.112640947368103, -13.334708212909774, -12.120822515829476, -12.289763218862259, -12.424427175560941, -12.652183802149066, -11.629804766040944, -10.88945631107522, -10.176077039594658, -11.189980115375814, -10.200613372812871, -9.97868894172133, -12.06954629856172, -10.498878617740582, -8.382261796068498, -14.496436260174669, -12.418870213046858, -8.631208834352519, -11.994339306865546, -12.43305233162128, -10.749658016230406, -13.216409707419157, -10.706916440895327, -13.244717658918706, -10.64593041162065, -11.453668130820848, -11.241604238510627, -12.661371569830266, -11.183681579010361, -11.940416168476096, -11.792759803805023, -11.364017287992063, -11.444846012934855, -13.627919521086358, -12.344156006289994, -10.625401827866078, -11.112640947368103, -13.334708212909774, -12.120822515829476, -12.268625793390381, -12.42754695929226, -12.652183802149066, -12.171468162351134, -10.88945631107522, -10.176077039594658, -11.189980115375814, -10.00969480485819, -9.913130904667446, -11.556534544852006, -10.612131746702682, -8.60424075531597, -14.496436260174669, -12.418870213046858, -8.631208834352519, -11.994339306865546, -11.755526980227682, -10.749658016230406, -13.216409707419157, -10.706916440895327, -13.197880339726208, -10.64593041162065, -11.449322267970556, -11.1342027640729, -12.98576250968346, -11.183681579010361, -11.940416168476096, -11.792759803805023, -11.364017287992063, -11.414634198489697, -13.579173340972085, -12.344156006289994, -10.625401827866078, -11.114021969281922, -13.069627774726785, -12.120822515829476, -12.881972359411419, -12.42754695929226, -12.652183802149066, -12.171468162351134, -10.88945631107522, -10.176077039594658, -11.189980115375814, -9.991940209412101, -9.913130904667446, -11.556534544852006, -10.78502855627203, -8.60424075531597, -14.758122697411832, -12.13246099687056, -9.216294840040844, -12.585157585761284, -11.755526980227682, -10.749658016230406, -13.216409707419157, -10.706916440895327, -12.648130017456758, -10.692217249932215, -11.449322267970556, -11.1342027640729, -12.738280611187582, -11.183681579010361, -11.940416168476096, -11.792759803805023, -11.364017287992063, -11.414634198489697, -12.991832382432888, -12.344156006289994, -10.625401827866078, -11.114021969281922, -12.974197029655851, -11.969021369918854, -12.703799332329453, -12.54119332174994, -12.652183802149066, -12.317953785610047, -10.383944147188597, -10.176077039594658, -11.189980115375814, -9.991940209412101, -10.285293867750951, -11.556534544852006, -10.78502855627203, -8.60424075531597, -14.758122697411832, -12.13246099687056, -9.216294840040844, -12.585157585761284, -11.755526980227682, -10.749658016230406, -13.216409707419157, -11.385232587269174, -12.558371421659771, -10.692217249932215, -11.369003792178459, -11.1342027640729, -12.738280611187582, -11.183681579010361, -11.940416168476096, -11.792759803805023, -11.592428568502992, -11.432603052590002, -12.991832382432888, -12.078968820899215, -10.625401827866078, -11.114021969281922, -12.974197029655851, -11.969021369918854, -12.488004985270152, -12.54119332174994, -12.652183802149066, -12.317953785610047, -10.383944147188597, -10.176077039594658, -11.189980115375814, -9.991940209412101, -10.333766575528287, -11.556534544852006, -10.667504738862768, -8.576545818419504, -14.789064635312926, -12.248844910842708, -9.216294840040844, -12.585157585761284, -11.755526980227682, -10.749658016230406, -13.216409707419157, -11.385232587269174, -12.571642417450711, -10.626283028355752, -11.369003792178459, -11.1342027640729, -12.738280611187582, -11.183681579010361, -11.940416168476096, -11.792759803805023, -11.592428568502992, -11.539460254640822, -12.991832382432888, -12.444379986919202, -10.625401827866078, -11.308533369787021, -12.974197029655851, -11.969021369918854, -12.488004985270152, -12.54119332174994, -12.652183802149066, -12.317953785610047, -10.337289286604898, -10.176077039594658, -11.189980115375814, -10.121318143855408, -10.333766575528287, -11.556534544852006, -10.667504738862768, -8.576545818419504, -14.789064635312926, -12.786731532513564, -9.216294840040844, -12.341708554992854, -11.669834263717933, -10.749658016230406, -13.266997853511654, -11.385232587269174, -12.58060633726784, -10.626283028355752, -11.369003792178459, -11.1342027640729, -12.738280611187582, -11.183681579010361, -11.91429796286124, -11.792759803805023, -11.592428568502992, -10.936217288876774, -12.991832382432888, -12.444379986919202, -10.625401827866078, -11.308533369787021, -12.974197029655851, -11.969021369918854, -12.488004985270152, -12.796929936647462, -12.652183802149066, -12.308935874979298, -10.337289286604898, -10.176077039594658, -11.189980115375814, -10.121318143855408, -10.333766575528287, -11.556534544852006, -10.412021884759415, -8.576545818419504, -14.789064635312926, -12.786731532513564, -9.216294840040844, -12.341708554992854, -11.669834263717933, -10.749658016230406, -13.225904100926456, -11.827227796214562, -12.58060633726784, -10.626283028355752, -11.369003792178459, -11.211262260873731, -12.738280611187582, -11.183681579010361, -11.820333696770689, -11.854996804369751, -11.592428568502992, -10.936217288876774, -12.991832382432888, -12.444379986919202, -12.314661209299627, -11.308533369787021, -13.448397938438502, -11.748098566343279, -12.488004985270152, -12.796929936647462, -12.749975025691317, -12.308935874979298, -10.882749990504127, -10.775676613830052, -11.189980115375814, -9.956861705403602, -10.333766575528287, -11.556534544852006, -10.897841230798186, -8.576545818419504, -14.789064635312926, -12.568078575557049, -9.216294840040844, -12.341708554992854, -11.669834263717933, -10.749658016230406, -13.16526580045981, -11.827227796214562, -12.58060633726784, -10.626283028355752, -11.369003792178459, -11.211262260873731, -12.738280611187582, -11.183681579010361, -11.820333696770689, -11.854996804369751, -11.592428568502992, -10.936217288876774, -13.391269525360041, -12.444379986919202, -12.314661209299627, -11.301975593580494, -13.448397938438502, -11.748098566343279, -12.438754618981008, -12.796929936647462, -12.749975025691317, -13.150951514543102, -10.882749990504127, -10.775676613830052, -11.189980115375814, -9.956861705403602, -10.217195130778585, -11.556534544852006], "1": [15900.185943296283, 14488.675576037727, 19374.50993112054, 17383.955072809986, 15208.483836023219, 17227.529377302802, 18099.42497145927, 15459.628009559441, 19451.789239808244, 17378.997347471002, 16988.18791970147, 15257.520712030486, 16218.90682361689, 16682.330028304386, 17654.84980774994, 17335.583983629775, 16491.575350856478, 17261.09894718706, 15963.481921378263, 17147.986100196547, 18370.963981413614, 17082.480044471184, 16792.808696451913, 15473.053363956078, 18595.24353230853, 16930.371416447648, 17315.141983744215, 18674.498758425387, 19327.9407345054, 17118.631294054154, 16525.8296741623, 16111.404832783935, 15328.32133257754, 14907.17892674533, 16380.972880258862, 16219.738204913934, 15900.185943296283, 14488.675576037727, 19374.50993112054, 17462.03113314236, 15208.483836023219, 17143.539774088014, 18235.91338657888, 15459.628009559441, 19451.789239808244, 17378.997347471002, 16988.18791970147, 15257.520712030486, 16218.90682361689, 16682.330028304386, 17654.84980774994, 17335.583983629775, 16387.51444182219, 17342.25324428282, 15963.481921378263, 16723.335652477905, 18370.963981413614, 17082.480044471184, 16406.223199355973, 15473.053363956078, 18595.24353230853, 16933.142084171523, 17315.141983744215, 18200.5899726604, 19327.9407345054, 17118.631294054154, 16525.8296741623, 16111.404832783935, 15553.122964937558, 14975.668205687967, 16380.972880258862, 16116.406315011875, 15900.185943296283, 15182.013392145764, 19374.50993112054, 17462.03113314236, 15208.483836023219, 17143.539774088014, 18235.91338657888, 15459.628009559441, 19451.789239808244, 17378.997347471002, 17001.508355089703, 15257.520712030486, 16317.409767069423, 16901.198295460206, 17654.84980774994, 17335.583983629775, 16387.51444182219, 17342.25324428282, 15963.481921378263, 16857.441511920573, 18370.963981413614, 17082.480044471184, 16406.223199355973, 15473.053363956078, 18595.24353230853, 16933.142084171523, 17565.782225570565, 18200.5899726604, 19071.165484426878, 17170.555444486676, 16525.8296741623, 16111.404832783935, 15597.329087686014, 14946.563139474041, 16380.972880258862, 16116.406315011875, 15900.185943296283, 15182.013392145764, 19374.50993112054, 17462.03113314236, 15208.483836023219, 17143.539774088014, 18235.91338657888, 15459.628009559441, 19607.877097663088, 17334.577017007166, 17111.938339033866, 15257.520712030486, 16317.409767069423, 16901.198295460206, 18103.09216050973, 17335.74421877807, 16387.51444182219, 17342.25324428282, 15963.481921378263, 16342.565890405647, 18446.386580827344, 17039.366439357753, 16406.223199355973, 15473.053363956078, 18595.24353230853, 16933.142084171523, 17565.782225570565, 18070.397150920206, 19071.165484426878, 17170.555444486676, 16527.457281300623, 16111.404832783935, 15597.329087686014, 14951.12408640256, 16380.972880258862, 16116.406315011875, 15900.185943296283, 13697.859796934375, 19374.50993112054, 17462.03113314236, 15208.483836023219, 17148.768563946927, 18235.91338657888, 15459.628009559441, 18647.933389323363, 16897.066585515982, 17111.938339033866, 15257.520712030486, 16317.409767069423, 16901.198295460206, 17765.995491530302, 17335.74421877807, 16387.51444182219, 17343.900296182168, 15963.481921378263, 16447.90915262791, 17918.20826236372, 17105.29991855999, 16406.223199355973, 15473.053363956078, 18595.24353230853, 16933.142084171523, 17565.782225570565, 18070.397150920206, 19071.165484426878, 17030.068134686535, 16314.72757294087, 16111.404832783935, 15597.329087686014, 14951.12408640256, 16383.287703718745, 16116.406315011875, 16264.690777229032, 13697.859796934375, 19374.50993112054, 17462.03113314236, 15208.483836023219, 17148.768563946927, 18235.91338657888, 15459.628009559441, 18647.933389323363, 16962.49714599311, 17111.938339033866, 15257.520712030486, 16317.409767069423, 16815.169680230603, 17831.23087787685, 17278.575225247027, 16387.51444182219, 17343.900296182168, 15963.481921378263, 16447.90915262791, 17918.20826236372, 17087.595918359802, 16406.223199355973, 15631.682949388225, 18659.207994353623, 16933.142084171523, 17565.782225570565, 18070.397150920206, 18862.359668912894, 17044.052271016844, 16314.72757294087, 16111.404832783935, 15655.812360208574, 14951.12408640256, 16383.287703718745, 16116.406315011875, 15818.726222287773, 14035.346000271282, 19374.50993112054, 17462.03113314236, 15254.254661170049, 17148.768563946927, 18235.91338657888, 15459.628009559441, 18647.933389323363, 16962.49714599311, 17111.938339033866, 15257.520712030486, 16317.409767069423, 16815.169680230603, 17831.23087787685, 17352.902827736983, 16387.51444182219, 17410.25602948577, 15963.481921378263, 16540.57795358996, 18055.27080043095, 16711.008937307408, 16413.982481567014, 15819.84293264422, 18523.23655995974, 16793.36290146345, 17565.782225570565, 18131.12397351247, 18933.152943210185, 17044.052271016844, 16314.72757294087, 16111.404832783935, 15644.683743336913, 15507.512664533702, 16191.886338928656, 16116.406315011875, 15599.330592330565, 14177.48411587059, 19374.50993112054, 18039.937390963936, 15254.254661170049, 17148.768563946927, 18213.553772537736, 15459.628009559441, 18647.933389323363, 16962.49714599311, 17111.938339033866, 15257.520712030486, 16317.409767069423, 16815.169680230603, 17831.23087787685, 17266.522004497157, 16387.51444182219, 17489.622651500904, 15936.936410382317, 16400.28633027221, 18055.27080043095, 16711.008937307408, 16439.56594517687, 15759.244425225772, 18306.4782128612, 16793.36290146345, 17565.782225570565, 18147.354382390866, 18933.152943210185, 17044.052271016844, 16314.72757294087, 16111.404832783935, 15644.683743336913, 15507.512664533702, 15854.959566665908, 16116.406315011875, 15599.330592330565, 14177.48411587059, 19374.50993112054, 17515.760894416355, 15254.254661170049, 17247.025886298128, 18071.94243554418, 15459.628009559441, 18647.933389323363, 16962.49714599311, 17695.796632363337, 15257.5207120